NAME : GeneratedInstance
TYPE : TSP
DIMENSION : 10
EDGE_WEIGHT_TYPE : EUC_2D
NODE_COORD_SECTION
1 12.345678 34.567890
2 45.678901 23.456789
3 56.789012 45.678901
4 67.890123 56.789012
5 78.901234 67.890123
6 89.012345 78.901234
7 90.123456 12.345678
8 23.456789 34.567890
9 45.678901 56.789012
10 34.567890 78.901234
EOF
